10	5
0	3	6	1	2
1	2	4	3
2	0
3	2	10	5
4	1	7
5	1	9
6	2	3	7
7	3	5	10	8
8	1	11
9	1	11
10	1	11
11	0
0	0	0	0	0	0	0
1	9	4	1	3	5	3
2	7	0	1	2	0	4
3	8	4	2	2	4	5
4	6	2	5	1	0	0
5	5	3	0	3	0	0
6	8	0	0	0	5	1
7	8	3	1	2	3	1
8	7	4	3	5	2	1
9	4	5	3	4	4	3
10	7	0	4	4	0	4
11	0	0	0	0	0	0
7	5	6	6	6
